qbf_easy_train/easy_2960_SAT.qdimacs
p cnf 24 56
a 2 19 14 0
e 1 3 4 5 6 7 8 9 10 11 12 13 15 16 17 18 20 21 22 23 24 0
-4 -2 0
-4 -3 0
2 3 4 0
5 -4 0
5 -2 0
4 2 -5 0
-6 -1 0
-6 -5 0
1 5 6 0
9 2 0
9 8 0
-2 -8 -9 0
-10 -7 0
-10 -9 0
7 9 10 0
-10 7 -11 0
10 -7 -11 0
-10 -7 11 0
10 7 11 0
-6 11 -12 0
6 -11 -12 0
-6 -11 12 0
6 11 12 0
14 13 0
14 7 0
-13 -7 -14 0
16 15 0
16 -7 0
-15 7 -16 0
17 -13 0
17 -16 0
13 16 -17 0
-19 17 0
-19 18 0
-17 -18 19 0
20 14 0
20 -19 0
-14 19 -20 0
21 -4 0
21 -13 0
4 13 -21 0
22 -2 0
22 -21 0
2 21 -22 0
-23 -20 0
-23 -22 0
20 22 23 0
24 -12 0
24 -23 0
12 23 -24 0
-20 -6 -16 18 -7 -2 0
-18 -17 16 4 -19 1 -3 0
4 1 21 0
8 1 15 23 2 0
5 -12 -22 4 17 8 -1 10 0
24 0
