sat_easy_train/easy_2960_SAT.dimacs
p cnf 135 440
-5 -3 0
-5 4 0
3 -4 5 0
-6 2 0
-6 5 0
-2 -5 6 0
-1 6 -7 0
1 -6 -7 0
-1 -6 7 0
1 6 7 0
9 7 0
9 8 0
-7 -8 -9 0
11 10 0
11 -4 0
-10 4 -11 0
-14 12 0
-14 13 0
-12 -13 14 0
-16 -14 0
-16 -15 0
14 15 16 0
-17 11 0
-17 16 0
-11 -16 17 0
-18 -17 0
-18 16 0
17 -16 18 0
-20 18 0
-20 -19 0
-18 19 20 0
22 3 0
22 21 0
-3 -21 -22 0
23 20 0
23 -22 0
-20 22 -23 0
-24 -9 0
-24 23 0
9 -23 24 0
25 21 0
25 4 0
-21 -4 -25 0
-26 25 0
-26 -19 0
-25 19 26 0
-28 26 0
-28 27 0
-26 -27 28 0
29 15 0
29 -13 0
-15 13 -29 0
30 29 0
30 19 0
-29 -19 -30 0
31 28 0
31 30 0
-28 -30 -31 0
33 32 0
33 -3 0
-32 3 -33 0
13 -33 -34 0
-13 33 -34 0
13 33 34 0
-13 -33 34 0
35 22 0
35 -34 0
-22 34 -35 0
-16 35 -36 0
16 -35 -36 0
-16 -35 36 0
16 35 36 0
37 26 0
37 10 0
-26 -10 -37 0
40 38 0
40 39 0
-38 -39 -40 0
41 -37 0
41 40 0
37 -40 -41 0
42 -36 0
42 -41 0
36 41 -42 0
43 31 0
43 42 0
-31 -42 -43 0
24 43 -44 0
-24 -43 -44 0
24 -43 44 0
-24 43 44 0
45 22 0
45 -7 0
-22 7 -45 0
46 -38 0
46 27 0
38 -27 -46 0
-47 -38 0
-47 15 0
38 -15 47 0
-15 -47 -48 0
15 47 -48 0
-15 47 48 0
15 -47 48 0
49 46 0
49 48 0
-46 -48 -49 0
-50 30 0
-50 21 0
-30 -21 50 0
-51 -49 0
-51 -50 0
49 50 51 0
52 45 0
52 51 0
-45 -51 -52 0
26 -33 -53 0
-26 33 -53 0
26 33 53 0
-26 -33 53 0
-54 18 0
-54 13 0
-18 -13 54 0
-55 -53 0
-55 54 0
53 -54 55 0
56 3 0
56 -13 0
-3 13 -56 0
57 56 0
57 -21 0
-56 21 -57 0
58 -55 0
58 57 0
55 -57 -58 0
59 -25 0
59 48 0
25 -48 -59 0
3 -10 -60 0
-3 10 -60 0
3 10 60 0
-3 -10 60 0
61 -11 0
61 60 0
11 -60 -61 0
-62 -16 0
-62 -61 0
16 61 62 0
26 62 -63 0
-26 -62 -63 0
26 -62 63 0
-26 62 63 0
-64 59 0
-64 63 0
-59 -63 64 0
12 -26 -65 0
-12 26 -65 0
12 26 65 0
-12 -26 65 0
66 47 0
66 -65 0
-47 65 -66 0
67 -32 0
67 39 0
32 -39 -67 0
-68 -67 0
-68 39 0
67 -39 68 0
69 -49 0
69 68 0
49 -68 -69 0
-70 -69 0
-70 46 0
69 -46 70 0
-71 66 0
-71 -70 0
-66 70 71 0
64 71 -72 0
-64 -71 -72 0
64 -71 72 0
-64 71 72 0
-73 -58 0
-73 72 0
58 -72 73 0
-74 -52 0
-74 -73 0
52 73 74 0
-75 -6 0
-75 17 0
6 -17 75 0
13 -26 -76 0
-13 26 -76 0
13 26 76 0
-13 -26 76 0
-77 4 0
-77 -76 0
-4 76 77 0
-78 75 0
-78 77 0
-75 -77 78 0
79 2 0
79 8 0
-2 -8 -79 0
80 -79 0
80 -32 0
79 32 -80 0
81 33 0
81 -15 0
-33 15 -81 0
82 -67 0
82 -19 0
67 19 -82 0
79 -82 -83 0
-79 82 -83 0
79 82 83 0
-79 -82 83 0
84 -83 0
84 -39 0
83 39 -84 0
-85 -84 0
-85 -34 0
84 34 85 0
-86 -81 0
-86 85 0
81 -85 86 0
80 86 -87 0
-80 -86 -87 0
80 -86 87 0
-80 86 87 0
78 87 -88 0
-78 -87 -88 0
78 -87 88 0
-78 87 88 0
-89 74 0
-89 -88 0
-74 88 89 0
-63 -14 -90 0
63 14 -90 0
-63 14 90 0
63 -14 90 0
27 -90 -91 0
-27 90 -91 0
27 90 91 0
-27 -90 91 0
56 22 -92 0
-56 -22 -92 0
56 -22 92 0
-56 22 92 0
-93 26 0
-93 -1 0
-26 1 93 0
11 30 -94 0
-11 -30 -94 0
11 -30 94 0
-11 30 94 0
-96 -95 0
-96 38 0
95 -38 96 0
97 -94 0
97 -96 0
94 96 -97 0
-98 -93 0
-98 97 0
93 -97 98 0
99 -92 0
99 98 0
92 -98 -99 0
100 -91 0
100 -99 0
91 99 -100 0
101 -20 0
101 -20 0
20 -101 0
102 4 0
102 11 0
-4 -11 -102 0
-103 -102 0
-103 -4 0
102 4 103 0
-104 -101 0
-104 -103 0
101 103 104 0
-105 29 0
-105 -48 0
-29 48 105 0
105 -3 -106 0
-105 3 -106 0
105 3 106 0
-105 -3 106 0
107 104 0
107 106 0
-104 -106 -107 0
-108 -32 0
-108 -8 0
32 8 108 0
109 -26 0
109 -26 0
26 -109 0
-110 3 0
-110 -109 0
-3 109 110 0
111 63 0
111 8 0
-63 -8 -111 0
112 111 0
112 12 0
-111 -12 -112 0
110 112 -113 0
-110 -112 -113 0
110 -112 113 0
-110 112 113 0
114 -108 0
114 -113 0
108 113 -114 0
115 107 0
115 114 0
-107 -114 -115 0
-116 76 0
-116 22 0
-76 -22 116 0
19 12 -117 0
-19 -12 -117 0
19 -12 117 0
-19 12 117 0
-118 103 0
-118 117 0
-103 -117 118 0
119 -26 0
119 11 0
26 -11 -119 0
120 -70 0
120 -119 0
70 119 -120 0
-121 -120 0
-121 5 0
120 -5 121 0
122 121 0
122 82 0
-121 -82 -122 0
118 -122 -123 0
-118 122 -123 0
118 122 123 0
-118 -122 123 0
124 -67 0
124 11 0
67 -11 -124 0
125 -10 0
125 5 0
10 -5 -125 0
125 -21 -126 0
-125 21 -126 0
125 21 126 0
-125 -21 126 0
127 -124 0
127 126 0
124 -126 -127 0
-128 123 0
-128 127 0
-123 -127 128 0
129 -116 0
129 -128 0
116 128 -129 0
-130 115 0
-130 -129 0
-115 129 130 0
131 -100 0
131 130 0
100 -130 -131 0
-109 76 -132 0
109 -76 -132 0
-109 -76 132 0
109 76 132 0
133 131 0
133 132 0
-131 -132 -133 0
-134 89 0
-134 -133 0
-89 133 134 0
44 -134 -135 0
-44 134 -135 0
44 134 135 0
-44 -134 135 0
-112 108 0
-94 25 -106 13 24 0
16 -54 1 -67 0
93 121 68 -62 0
-34 86 -101 0
16 -130 -7 -45 -122 0
91 -120 -96 -95 0
-13 -27 0
31 -9 119 -86 0
-4 -35 -14 -93 -109 0
104 -94 103 89 79 86 0
90 107 -53 -18 -119 73 0
69 31 -34 0
-118 74 -8 120 0
123 -11 105 78 -14 -35 0
-30 87 -114 -80 -4 105 0
25 17 -42 0
129 -78 19 49 -53 0
-8 86 130 118 0
-15 -110 0
-59 104 86 0
-114 -77 -65 0
-101 57 -35 -21 0
31 133 -68 18 70 -45 0
86 114 -108 -48 0
-61 -74 0
-20 94 112 26 -104 0
51 28 85 0
95 54 46 20 -96 -59 0
72 -90 88 0
4 -78 85 8 108 0
-13 10 77 75 0
8 -93 -98 11 0
-132 -120 -50 -3 -7 0
-90 -121 111 -100 78 0
-40 -25 32 90 -78 0
-71 118 121 19 -56 -68 0
52 2 -110 -16 114 -107 0
17 28 67 11 8 -31 0
-15 124 0
-23 14 20 21 99 1 0
-1 39 132 -60 0
110 132 -108 0
105 9 -88 -84 125 -52 0
-35 -111 -95 0
-104 -107 -73 -30 -80 0
-96 133 100 -120 51 -20 0
104 102 -101 -47 35 0
-109 9 0
85 -119 0
53 -108 81 -13 -97 -109 0
111 32 -113 -73 0
129 -10 -57 -83 55 0
129 -18 0
-117 49 -16 -101 0
-86 -125 -7 -96 -91 0
-126 127 115 120 62 0
135 0
